p cnf 687 1992
-2 -11 51 0
2 -11 -51 0
-2 11 -51 0
2 11 51 0
16 -18 52 0
-16 -18 -52 0
16 18 -52 0
-16 18 52 0
19 20 53 0
-19 20 -53 0
19 -20 -53 0
-19 -20 53 0
24 -26 54 0
-24 -26 -54 0
24 26 -54 0
-24 26 54 0
29 -32 55 0
-29 -32 -55 0
29 32 -55 0
-29 32 55 0
-35 -38 56 0
35 -38 -56 0
-35 38 -56 0
35 38 56 0
-39 -40 57 0
39 -40 -57 0
-39 40 -57 0
39 40 57 0
-43 45 58 0
43 45 -58 0
-43 -45 -58 0
43 -45 58 0
46 49 59 0
-46 49 -59 0
46 -49 -59 0
-46 -49 59 0
50 -51 60 0
-50 -51 -60 0
50 51 -60 0
-50 51 60 0
52 -53 61 0
-52 -53 -61 0
52 53 -61 0
-52 53 61 0
54 -55 62 0
-54 -55 -62 0
54 55 -62 0
-54 55 62 0
56 -57 63 0
-56 -57 -63 0
56 57 -63 0
-56 57 63 0
58 -59 64 0
-58 -59 -64 0
58 59 -64 0
-58 59 64 0
60 -61 65 0
-60 -61 -65 0
60 61 -65 0
-60 61 65 0
62 -63 66 0
-62 -63 -66 0
62 63 -66 0
-62 63 66 0
-64 -65 66 0
64 -65 -66 0
-64 65 -66 0
64 65 66 0
3 4 67 0
-3 4 -67 0
3 -4 -67 0
-3 -4 67 0
-8 9 68 0
8 9 -68 0
-8 -9 -68 0
8 -9 68 0
-14 19 69 0
14 19 -69 0
-14 -19 -69 0
14 -19 69 0
-21 25 70 0
21 25 -70 0
-21 -25 -70 0
21 -25 70 0
-28 31 71 0
28 31 -71 0
-28 -31 -71 0
28 -31 71 0
33 35 72 0
-33 35 -72 0
33 -35 -72 0
-33 -35 72 0
36 -38 73 0
-36 -38 -73 0
36 38 -73 0
-36 38 73 0
39 42 74 0
-39 42 -74 0
39 -42 -74 0
-39 -42 74 0
43 44 75 0
-43 44 -75 0
43 -44 -75 0
-43 -44 75 0
66 -67 76 0
-66 -67 -76 0
66 67 -76 0
-66 67 76 0
68 -69 77 0
-68 -69 -77 0
68 69 -77 0
-68 69 77 0
70 -71 78 0
-70 -71 -78 0
70 71 -78 0
-70 71 78 0
72 -73 79 0
-72 -73 -79 0
72 73 -79 0
-72 73 79 0
74 -75 80 0
-74 -75 -80 0
74 75 -80 0
-74 75 80 0
76 -77 81 0
-76 -77 -81 0
76 77 -81 0
-76 77 81 0
78 -79 82 0
-78 -79 -82 0
78 79 -82 0
-78 79 82 0
-80 -81 82 0
80 -81 -82 0
-80 81 -82 0
80 81 82 0
-2 -4 83 0
2 -4 -83 0
-2 4 -83 0
2 4 83 0
6 -8 84 0
-6 -8 -84 0
6 8 -84 0
-6 8 84 0
12 13 85 0
-12 13 -85 0
12 -13 -85 0
-12 -13 85 0
-14 -18 86 0
14 -18 -86 0
-14 18 -86 0
14 18 86 0
-19 21 87 0
19 21 -87 0
-19 -21 -87 0
19 -21 87 0
25 28 88 0
-25 28 -88 0
25 -28 -88 0
-25 -28 88 0
29 -31 89 0
-29 -31 -89 0
29 31 -89 0
-29 31 89 0
-32 34 90 0
32 34 -90 0
-32 -34 -90 0
32 -34 90 0
-35 36 91 0
35 36 -91 0
-35 -36 -91 0
35 -36 91 0
-37 -39 92 0
37 -39 -92 0
-37 39 -92 0
37 39 92 0
41 42 93 0
-41 42 -93 0
41 -42 -93 0
-41 -42 93 0
-43 45 94 0
43 45 -94 0
-43 -45 -94 0
43 -45 94 0
82 -83 95 0
-82 -83 -95 0
82 83 -95 0
-82 83 95 0
84 -85 96 0
-84 -85 -96 0
84 85 -96 0
-84 85 96 0
86 -87 97 0
-86 -87 -97 0
86 87 -97 0
-86 87 97 0
88 -89 98 0
-88 -89 -98 0
88 89 -98 0
-88 89 98 0
90 -91 99 0
-90 -91 -99 0
90 91 -99 0
-90 91 99 0
92 -93 100 0
-92 -93 -100 0
92 93 -100 0
-92 93 100 0
94 -95 101 0
-94 -95 -101 0
94 95 -101 0
-94 95 101 0
96 -97 102 0
-96 -97 -102 0
96 97 -102 0
-96 97 102 0
98 -99 103 0
-98 -99 -103 0
98 99 -103 0
-98 99 103 0
100 -101 104 0
-100 -101 -104 0
100 101 -104 0
-100 101 104 0
102 -103 105 0
-102 -103 -105 0
102 103 -105 0
-102 103 105 0
104 105 0
-104 -105 0
-2 5 106 0
2 5 -106 0
-2 -5 -106 0
2 -5 106 0
9 10 107 0
-9 10 -107 0
9 -10 -107 0
-9 -10 107 0
-11 12 108 0
11 12 -108 0
-11 -12 -108 0
11 -12 108 0
13 -15 109 0
-13 -15 -109 0
13 15 -109 0
-13 15 109 0
16 -17 110 0
-16 -17 -110 0
16 17 -110 0
-16 17 110 0
20 -23 111 0
-20 -23 -111 0
20 23 -111 0
-20 23 111 0
-24 27 112 0
24 27 -112 0
-24 -27 -112 0
24 -27 112 0
-29 -30 113 0
29 -30 -113 0
-29 30 -113 0
29 30 113 0
31 32 114 0
-31 32 -114 0
31 -32 -114 0
-31 -32 114 0
36 -40 115 0
-36 -40 -115 0
36 40 -115 0
-36 40 115 0
-42 -43 116 0
42 -43 -116 0
-42 43 -116 0
42 43 116 0
44 -49 117 0
-44 -49 -117 0
44 49 -117 0
-44 49 117 0
106 -107 118 0
-106 -107 -118 0
106 107 -118 0
-106 107 118 0
108 -109 119 0
-108 -109 -119 0
108 109 -119 0
-108 109 119 0
110 -111 120 0
-110 -111 -120 0
110 111 -120 0
-110 111 120 0
112 -113 121 0
-112 -113 -121 0
112 113 -121 0
-112 113 121 0
114 -115 122 0
-114 -115 -122 0
114 115 -122 0
-114 115 122 0
116 -117 123 0
-116 -117 -123 0
116 117 -123 0
-116 117 123 0
118 -119 124 0
-118 -119 -124 0
118 119 -124 0
-118 119 124 0
120 -121 125 0
-120 -121 -125 0
120 121 -125 0
-120 121 125 0
122 -123 126 0
-122 -123 -126 0
122 123 -126 0
-122 123 126 0
-124 -125 126 0
124 -125 -126 0
-124 125 -126 0
124 125 126 0
2 4 127 0
-2 4 -127 0
2 -4 -127 0
-2 -4 127 0
-5 7 128 0
5 7 -128 0
-5 -7 -128 0
5 -7 128 0
-8 -9 129 0
8 -9 -129 0
-8 9 -129 0
8 9 129 0
10 -12 130 0
-10 -12 -130 0
10 12 -130 0
-10 12 130 0
13 14 131 0
-13 14 -131 0
13 -14 -131 0
-13 -14 131 0
-15 -16 132 0
15 -16 -132 0
-15 16 -132 0
15 16 132 0
-17 -18 133 0
17 -18 -133 0
-17 18 -133 0
17 18 133 0
19 -24 134 0
-19 -24 -134 0
19 24 -134 0
-19 24 134 0
26 -30 135 0
-26 -30 -135 0
26 30 -135 0
-26 30 135 0
-32 34 136 0
32 34 -136 0
-32 -34 -136 0
32 -34 136 0
-36 -37 137 0
36 -37 -137 0
-36 37 -137 0
36 37 137 0
-38 39 138 0
38 39 -138 0
-38 -39 -138 0
38 -39 138 0
-41 -44 139 0
41 -44 -139 0
-41 44 -139 0
41 44 139 0
45 -46 140 0
-45 -46 -140 0
45 46 -140 0
-45 46 140 0
48 -49 141 0
-48 -49 -141 0
48 49 -141 0
-48 49 141 0
126 -127 142 0
-126 -127 -142 0
126 127 -142 0
-126 127 142 0
128 -129 143 0
-128 -129 -143 0
128 129 -143 0
-128 129 143 0
130 -131 144 0
-130 -131 -144 0
130 131 -144 0
-130 131 144 0
132 -133 145 0
-132 -133 -145 0
132 133 -145 0
-132 133 145 0
134 -135 146 0
-134 -135 -146 0
134 135 -146 0
-134 135 146 0
136 -137 147 0
-136 -137 -147 0
136 137 -147 0
-136 137 147 0
138 -139 148 0
-138 -139 -148 0
138 139 -148 0
-138 139 148 0
140 -141 149 0
-140 -141 -149 0
140 141 -149 0
-140 141 149 0
142 -143 150 0
-142 -143 -150 0
142 143 -150 0
-142 143 150 0
144 -145 151 0
-144 -145 -151 0
144 145 -151 0
-144 145 151 0
146 -147 152 0
-146 -147 -152 0
146 147 -152 0
-146 147 152 0
148 -149 153 0
-148 -149 -153 0
148 149 -153 0
-148 149 153 0
150 -151 154 0
-150 -151 -154 0
150 151 -154 0
-150 151 154 0
152 -153 155 0
-152 -153 -155 0
152 153 -155 0
-152 153 155 0
154 155 0
-154 -155 0
2 3 156 0
-2 3 -156 0
2 -3 -156 0
-2 -3 156 0
-10 -13 157 0
10 -13 -157 0
-10 13 -157 0
10 13 157 0
17 -18 158 0
-17 -18 -158 0
17 18 -158 0
-17 18 158 0
-19 -20 159 0
19 -20 -159 0
-19 20 -159 0
19 20 159 0
22 23 160 0
-22 23 -160 0
22 -23 -160 0
-22 -23 160 0
-24 25 161 0
24 25 -161 0
-24 -25 -161 0
24 -25 161 0
27 29 162 0
-27 29 -162 0
27 -29 -162 0
-27 -29 162 0
32 -35 163 0
-32 -35 -163 0
32 35 -163 0
-32 35 163 0
-36 -37 164 0
36 -37 -164 0
-36 37 -164 0
36 37 164 0
42 -43 165 0
-42 -43 -165 0
42 43 -165 0
-42 43 165 0
46 47 166 0
-46 47 -166 0
46 -47 -166 0
-46 -47 166 0
156 -157 167 0
-156 -157 -167 0
156 157 -167 0
-156 157 167 0
158 -159 168 0
-158 -159 -168 0
158 159 -168 0
-158 159 168 0
160 -161 169 0
-160 -161 -169 0
160 161 -169 0
-160 161 169 0
162 -163 170 0
-162 -163 -170 0
162 163 -170 0
-162 163 170 0
164 -165 171 0
-164 -165 -171 0
164 165 -171 0
-164 165 171 0
166 -167 172 0
-166 -167 -172 0
166 167 -172 0
-166 167 172 0
168 -169 173 0
-168 -169 -173 0
168 169 -173 0
-168 169 173 0
170 -171 174 0
-170 -171 -174 0
170 171 -174 0
-170 171 174 0
-172 -173 174 0
172 -173 -174 0
-172 173 -174 0
172 173 174 0
2 4 175 0
-2 4 -175 0
2 -4 -175 0
-2 -4 175 0
6 -8 176 0
-6 -8 -176 0
6 8 -176 0
-6 8 176 0
-10 12 177 0
10 12 -177 0
-10 -12 -177 0
10 -12 177 0
-13 14 178 0
13 14 -178 0
-13 -14 -178 0
13 -14 178 0
-20 21 179 0
20 21 -179 0
-20 -21 -179 0
20 -21 179 0
23 -24 180 0
-23 -24 -180 0
23 24 -180 0
-23 24 180 0
-31 -33 181 0
31 -33 -181 0
-31 33 -181 0
31 33 181 0
34 37 182 0
-34 37 -182 0
34 -37 -182 0
-34 -37 182 0
40 41 183 0
-40 41 -183 0
40 -41 -183 0
-40 -41 183 0
-45 46 184 0
45 46 -184 0
-45 -46 -184 0
45 -46 184 0
174 -175 185 0
-174 -175 -185 0
174 175 -185 0
-174 175 185 0
176 -177 186 0
-176 -177 -186 0
176 177 -186 0
-176 177 186 0
178 -179 187 0
-178 -179 -187 0
178 179 -187 0
-178 179 187 0
180 -181 188 0
-180 -181 -188 0
180 181 -188 0
-180 181 188 0
182 -183 189 0
-182 -183 -189 0
182 183 -189 0
-182 183 189 0
184 -185 190 0
-184 -185 -190 0
184 185 -190 0
-184 185 190 0
186 -187 191 0
-186 -187 -191 0
186 187 -191 0
-186 187 191 0
188 -189 192 0
-188 -189 -192 0
188 189 -192 0
-188 189 192 0
-190 -191 192 0
190 -191 -192 0
-190 191 -192 0
190 191 192 0
4 5 193 0
-4 5 -193 0
4 -5 -193 0
-4 -5 193 0
-6 7 194 0
6 7 -194 0
-6 -7 -194 0
6 -7 194 0
8 -12 195 0
-8 -12 -195 0
8 12 -195 0
-8 12 195 0
14 16 196 0
-14 16 -196 0
14 -16 -196 0
-14 -16 196 0
17 21 197 0
-17 21 -197 0
17 -21 -197 0
-17 -21 197 0
-23 29 198 0
23 29 -198 0
-23 -29 -198 0
23 -29 198 0
30 31 199 0
-30 31 -199 0
30 -31 -199 0
-30 -31 199 0
35 -36 200 0
-35 -36 -200 0
35 36 -200 0
-35 36 200 0
37 40 201 0
-37 40 -201 0
37 -40 -201 0
-37 -40 201 0
-43 47 202 0
43 47 -202 0
-43 -47 -202 0
43 -47 202 0
192 -193 203 0
-192 -193 -203 0
192 193 -203 0
-192 193 203 0
194 -195 204 0
-194 -195 -204 0
194 195 -204 0
-194 195 204 0
196 -197 205 0
-196 -197 -205 0
196 197 -205 0
-196 197 205 0
198 -199 206 0
-198 -199 -206 0
198 199 -206 0
-198 199 206 0
200 -201 207 0
-200 -201 -207 0
200 201 -207 0
-200 201 207 0
202 -203 208 0
-202 -203 -208 0
202 203 -208 0
-202 203 208 0
204 -205 209 0
-204 -205 -209 0
204 205 -209 0
-204 205 209 0
206 -207 210 0
-206 -207 -210 0
206 207 -210 0
-206 207 210 0
-208 -209 210 0
208 -209 -210 0
-208 209 -210 0
208 209 210 0
-1 -2 211 0
1 -2 -211 0
-1 2 -211 0
1 2 211 0
3 -4 212 0
-3 -4 -212 0
3 4 -212 0
-3 4 212 0
11 -12 213 0
-11 -12 -213 0
11 12 -213 0
-11 12 213 0
-14 17 214 0
14 17 -214 0
-14 -17 -214 0
14 -17 214 0
-20 -21 215 0
20 -21 -215 0
-20 21 -215 0
20 21 215 0
-22 23 216 0
22 23 -216 0
-22 -23 -216 0
22 -23 216 0
24 25 217 0
-24 25 -217 0
24 -25 -217 0
-24 -25 217 0
26 -27 218 0
-26 -27 -218 0
26 27 -218 0
-26 27 218 0
28 32 219 0
-28 32 -219 0
28 -32 -219 0
-28 -32 219 0
34 -36 220 0
-34 -36 -220 0
34 36 -220 0
-34 36 220 0
-37 -39 221 0
37 -39 -221 0
-37 39 -221 0
37 39 221 0
40 41 222 0
-40 41 -222 0
40 -41 -222 0
-40 -41 222 0
42 -45 223 0
-42 -45 -223 0
42 45 -223 0
-42 45 223 0
-48 -50 224 0
48 -50 -224 0
-48 50 -224 0
48 50 224 0
211 -212 225 0
-211 -212 -225 0
211 212 -225 0
-211 212 225 0
213 -214 226 0
-213 -214 -226 0
213 214 -226 0
-213 214 226 0
215 -216 227 0
-215 -216 -227 0
215 216 -227 0
-215 216 227 0
217 -218 228 0
-217 -218 -228 0
217 218 -228 0
-217 218 228 0
219 -220 229 0
-219 -220 -229 0
219 220 -229 0
-219 220 229 0
221 -222 230 0
-221 -222 -230 0
221 222 -230 0
-221 222 230 0
223 -224 231 0
-223 -224 -231 0
223 224 -231 0
-223 224 231 0
225 -226 232 0
-225 -226 -232 0
225 226 -232 0
-225 226 232 0
227 -228 233 0
-227 -228 -233 0
227 228 -233 0
-227 228 233 0
229 -230 234 0
-229 -230 -234 0
229 230 -234 0
-229 230 234 0
231 -232 235 0
-231 -232 -235 0
231 232 -235 0
-231 232 235 0
233 -234 236 0
-233 -234 -236 0
233 234 -236 0
-233 234 236 0
235 236 0
-235 -236 0
2 5 237 0
-2 5 -237 0
2 -5 -237 0
-2 -5 237 0
-6 9 238 0
6 9 -238 0
-6 -9 -238 0
6 -9 238 0
-11 12 239 0
11 12 -239 0
-11 -12 -239 0
11 -12 239 0
14 -16 240 0
-14 -16 -240 0
14 16 -240 0
-14 16 240 0
-21 -24 241 0
21 -24 -241 0
-21 24 -241 0
21 24 241 0
26 -27 242 0
-26 -27 -242 0
26 27 -242 0
-26 27 242 0
-30 -37 243 0
30 -37 -243 0
-30 37 -243 0
30 37 243 0
-39 -40 244 0
39 -40 -244 0
-39 40 -244 0
39 40 244 0
-45 46 245 0
45 46 -245 0
-45 -46 -245 0
45 -46 245 0
236 -237 246 0
-236 -237 -246 0
236 237 -246 0
-236 237 246 0
238 -239 247 0
-238 -239 -247 0
238 239 -247 0
-238 239 247 0
240 -241 248 0
-240 -241 -248 0
240 241 -248 0
-240 241 248 0
242 -243 249 0
-242 -243 -249 0
242 243 -249 0
-242 243 249 0
244 -245 250 0
-244 -245 -250 0
244 245 -250 0
-244 245 250 0
246 -247 251 0
-246 -247 -251 0
246 247 -251 0
-246 247 251 0
248 -249 252 0
-248 -249 -252 0
248 249 -252 0
-248 249 252 0
-250 -251 252 0
250 -251 -252 0
-250 251 -252 0
250 251 252 0
-1 -4 253 0
1 -4 -253 0
-1 4 -253 0
1 4 253 0
7 -11 254 0
-7 -11 -254 0
7 11 -254 0
-7 11 254 0
-14 -15 255 0
14 -15 -255 0
-14 15 -255 0
14 15 255 0
-16 -19 256 0
16 -19 -256 0
-16 19 -256 0
16 19 256 0
-21 25 257 0
21 25 -257 0
-21 -25 -257 0
21 -25 257 0
-29 -31 258 0
29 -31 -258 0
-29 31 -258 0
29 31 258 0
-34 -36 259 0
34 -36 -259 0
-34 36 -259 0
34 36 259 0
-37 38 260 0
37 38 -260 0
-37 -38 -260 0
37 -38 260 0
39 -40 261 0
-39 -40 -261 0
39 40 -261 0
-39 40 261 0
-42 -43 262 0
42 -43 -262 0
-42 43 -262 0
42 43 262 0
48 50 263 0
-48 50 -263 0
48 -50 -263 0
-48 -50 263 0
253 -254 264 0
-253 -254 -264 0
253 254 -264 0
-253 254 264 0
255 -256 265 0
-255 -256 -265 0
255 256 -265 0
-255 256 265 0
257 -258 266 0
-257 -258 -266 0
257 258 -266 0
-257 258 266 0
259 -260 267 0
-259 -260 -267 0
259 260 -267 0
-259 260 267 0
261 -262 268 0
-261 -262 -268 0
261 262 -268 0
-261 262 268 0
263 -264 269 0
-263 -264 -269 0
263 264 -269 0
-263 264 269 0
265 -266 270 0
-265 -266 -270 0
265 266 -270 0
-265 266 270 0
267 -268 271 0
-267 -268 -271 0
267 268 -271 0
-267 268 271 0
-269 -270 271 0
269 -270 -271 0
-269 270 -271 0
269 270 271 0
1 -2 272 0
-1 -2 -272 0
1 2 -272 0
-1 2 272 0
7 -8 273 0
-7 -8 -273 0
7 8 -273 0
-7 8 273 0
12 13 274 0
-12 13 -274 0
12 -13 -274 0
-12 -13 274 0
14 -15 275 0
-14 -15 -275 0
14 15 -275 0
-14 15 275 0
-17 18 276 0
17 18 -276 0
-17 -18 -276 0
17 -18 276 0
-21 -23 277 0
21 -23 -277 0
-21 23 -277 0
21 23 277 0
24 26 278 0
-24 26 -278 0
24 -26 -278 0
-24 -26 278 0
27 -29 279 0
-27 -29 -279 0
27 29 -279 0
-27 29 279 0
30 -32 280 0
-30 -32 -280 0
30 32 -280 0
-30 32 280 0
-34 35 281 0
34 35 -281 0
-34 -35 -281 0
34 -35 281 0
38 -41 282 0
-38 -41 -282 0
38 41 -282 0
-38 41 282 0
43 48 283 0
-43 48 -283 0
43 -48 -283 0
-43 -48 283 0
271 -272 284 0
-271 -272 -284 0
271 272 -284 0
-271 272 284 0
273 -274 285 0
-273 -274 -285 0
273 274 -285 0
-273 274 285 0
275 -276 286 0
-275 -276 -286 0
275 276 -286 0
-275 276 286 0
277 -278 287 0
-277 -278 -287 0
277 278 -287 0
-277 278 287 0
279 -280 288 0
-279 -280 -288 0
279 280 -288 0
-279 280 288 0
281 -282 289 0
-281 -282 -289 0
281 282 -289 0
-281 282 289 0
283 -284 290 0
-283 -284 -290 0
283 284 -290 0
-283 284 290 0
285 -286 291 0
-285 -286 -291 0
285 286 -291 0
-285 286 291 0
287 -288 292 0
-287 -288 -292 0
287 288 -292 0
-287 288 292 0
289 -290 293 0
-289 -290 -293 0
289 290 -293 0
-289 290 293 0
291 -292 294 0
-291 -292 -294 0
291 292 -294 0
-291 292 294 0
293 294 0
-293 -294 0
2 -3 295 0
-2 -3 -295 0
2 3 -295 0
-2 3 295 0
7 9 296 0
-7 9 -296 0
7 -9 -296 0
-7 -9 296 0
10 -13 297 0
-10 -13 -297 0
10 13 -297 0
-10 13 297 0
14 16 298 0
-14 16 -298 0
14 -16 -298 0
-14 -16 298 0
-17 -18 299 0
17 -18 -299 0
-17 18 -299 0
17 18 299 0
-20 -21 300 0
20 -21 -300 0
-20 21 -300 0
20 21 300 0
22 -23 301 0
-22 -23 -301 0
22 23 -301 0
-22 23 301 0
-24 27 302 0
24 27 -302 0
-24 -27 -302 0
24 -27 302 0
-35 -36 303 0
35 -36 -303 0
-35 36 -303 0
35 36 303 0
-39 -40 304 0
39 -40 -304 0
-39 40 -304 0
39 40 304 0
-43 -44 305 0
43 -44 -305 0
-43 44 -305 0
43 44 305 0
-49 50 306 0
49 50 -306 0
-49 -50 -306 0
49 -50 306 0
295 -296 307 0
-295 -296 -307 0
295 296 -307 0
-295 296 307 0
297 -298 308 0
-297 -298 -308 0
297 298 -308 0
-297 298 308 0
299 -300 309 0
-299 -300 -309 0
299 300 -309 0
-299 300 309 0
301 -302 310 0
-301 -302 -310 0
301 302 -310 0
-301 302 310 0
303 -304 311 0
-303 -304 -311 0
303 304 -311 0
-303 304 311 0
305 -306 312 0
-305 -306 -312 0
305 306 -312 0
-305 306 312 0
307 -308 313 0
-307 -308 -313 0
307 308 -313 0
-307 308 313 0
309 -310 314 0
-309 -310 -314 0
309 310 -314 0
-309 310 314 0
311 -312 315 0
-311 -312 -315 0
311 312 -315 0
-311 312 315 0
-313 -314 315 0
313 -314 -315 0
-313 314 -315 0
313 314 315 0
3 -8 316 0
-3 -8 -316 0
3 8 -316 0
-3 8 316 0
9 -10 317 0
-9 -10 -317 0
9 10 -317 0
-9 10 317 0
-11 12 318 0
11 12 -318 0
-11 -12 -318 0
11 -12 318 0
-13 17 319 0
13 17 -319 0
-13 -17 -319 0
13 -17 319 0
20 26 320 0
-20 26 -320 0
20 -26 -320 0
-20 -26 320 0
27 -30 321 0
-27 -30 -321 0
27 30 -321 0
-27 30 321 0
33 -42 322 0
-33 -42 -322 0
33 42 -322 0
-33 42 322 0
-44 -47 323 0
44 -47 -323 0
-44 47 -323 0
44 47 323 0
315 -316 324 0
-315 -316 -324 0
315 316 -324 0
-315 316 324 0
317 -318 325 0
-317 -318 -325 0
317 318 -325 0
-317 318 325 0
319 -320 326 0
-319 -320 -326 0
319 320 -326 0
-319 320 326 0
321 -322 327 0
-321 -322 -327 0
321 322 -327 0
-321 322 327 0
323 -324 328 0
-323 -324 -328 0
323 324 -328 0
-323 324 328 0
325 -326 329 0
-325 -326 -329 0
325 326 -329 0
-325 326 329 0
-327 -328 329 0
327 -328 -329 0
-327 328 -329 0
327 328 329 0
-1 -3 330 0
1 -3 -330 0
-1 3 -330 0
1 3 330 0
4 5 331 0
-4 5 -331 0
4 -5 -331 0
-4 -5 331 0
7 8 332 0
-7 8 -332 0
7 -8 -332 0
-7 -8 332 0
10 11 333 0
-10 11 -333 0
10 -11 -333 0
-10 -11 333 0
14 15 334 0
-14 15 -334 0
14 -15 -334 0
-14 -15 334 0
-17 -22 335 0
17 -22 -335 0
-17 22 -335 0
17 22 335 0
27 -28 336 0
-27 -28 -336 0
27 28 -336 0
-27 28 336 0
30 31 337 0
-30 31 -337 0
30 -31 -337 0
-30 -31 337 0
34 40 338 0
-34 40 -338 0
34 -40 -338 0
-34 -40 338 0
-49 50 339 0
49 50 -339 0
-49 -50 -339 0
49 -50 339 0
330 -331 340 0
-330 -331 -340 0
330 331 -340 0
-330 331 340 0
332 -333 341 0
-332 -333 -341 0
332 333 -341 0
-332 333 341 0
334 -335 342 0
-334 -335 -342 0
334 335 -342 0
-334 335 342 0
336 -337 343 0
-336 -337 -343 0
336 337 -343 0
-336 337 343 0
338 -339 344 0
-338 -339 -344 0
338 339 -344 0
-338 339 344 0
340 -341 345 0
-340 -341 -345 0
340 341 -345 0
-340 341 345 0
342 -343 346 0
-342 -343 -346 0
342 343 -346 0
-342 343 346 0
-344 -345 346 0
344 -345 -346 0
-344 345 -346 0
344 345 346 0
-12 347 0
-24 347 0
-12 -24 348 0
-23 347 0
-12 -23 348 0
-24 -23 348 0
-12 -24 -23 349 0
-22 350 0
-21 350 0
-22 -21 351 0
-20 350 0
-22 -20 351 0
-21 -20 351 0
-22 -21 -20 352 0
-347 353 0
-348 354 0
-349 355 0
-350 353 0
-351 354 0
-352 355 0
-347 -350 354 0
-347 -351 355 0
-347 -352 356 0
-348 -350 355 0
-348 -351 356 0
-348 -352 357 0
-349 -350 356 0
-349 -351 357 0
-349 -352 358 0
-19 359 0
-18 359 0
-19 -18 360 0
-17 359 0
-19 -17 360 0
-18 -17 360 0
-19 -18 -17 361 0
-16 362 0
-15 362 0
-16 -15 363 0
-14 362 0
-16 -14 363 0
-15 -14 363 0
-16 -15 -14 364 0
-359 365 0
-360 366 0
-361 367 0
-362 365 0
-363 366 0
-364 367 0
-359 -362 366 0
-359 -363 367 0
-359 -364 368 0
-360 -362 367 0
-360 -363 368 0
-360 -364 369 0
-361 -362 368 0
-361 -363 369 0
-361 -364 370 0
-353 371 0
-355 372 0
-357 373 0
-365 371 0
-367 372 0
-369 373 0
-353 -365 372 0
-353 -367 373 0
-353 -369 374 0
-355 -365 373 0
-355 -367 374 0
-355 -369 375 0
-357 -365 374 0
-357 -367 375 0
-357 -369 376 0
-354 377 0
-356 378 0
-358 379 0
-366 377 0
-368 378 0
-370 379 0
-354 -366 378 0
-354 -368 379 0
-354 -370 380 0
-356 -366 379 0
-356 -368 380 0
-356 -370 381 0
-358 -366 380 0
-358 -368 381 0
-358 -370 382 0
-372 383 0
-377 383 0
-372 -377 384 0
-373 385 0
-378 385 0
-373 -378 386 0
-374 387 0
-379 387 0
-374 -379 388 0
-375 389 0
-380 389 0
-375 -380 390 0
-376 391 0
-381 391 0
-376 -381 392 0
-13 393 0
-25 393 0
-13 -25 394 0
-11 393 0
-13 -11 394 0
-25 -11 394 0
-13 -25 -11 395 0
-10 396 0
-9 396 0
-10 -9 397 0
-8 396 0
-10 -8 397 0
-9 -8 397 0
-10 -9 -8 398 0
-393 399 0
-394 400 0
-395 401 0
-396 399 0
-397 400 0
-398 401 0
-393 -396 400 0
-393 -397 401 0
-393 -398 402 0
-394 -396 401 0
-394 -397 402 0
-394 -398 403 0
-395 -396 402 0
-395 -397 403 0
-395 -398 404 0
-7 405 0
-6 405 0
-7 -6 406 0
-5 405 0
-7 -5 406 0
-6 -5 406 0
-7 -6 -5 407 0
-4 408 0
-3 408 0
-4 -3 409 0
-2 408 0
-4 -2 409 0
-3 -2 409 0
-4 -3 -2 410 0
-405 411 0
-406 412 0
-407 413 0
-408 411 0
-409 412 0
-410 413 0
-405 -408 412 0
-405 -409 413 0
-405 -410 414 0
-406 -408 413 0
-406 -409 414 0
-406 -410 415 0
-407 -408 414 0
-407 -409 415 0
-407 -410 416 0
-399 417 0
-401 418 0
-403 419 0
-411 417 0
-413 418 0
-415 419 0
-399 -411 418 0
-399 -413 419 0
-399 -415 420 0
-401 -411 419 0
-401 -413 420 0
-401 -415 421 0
-403 -411 420 0
-403 -413 421 0
-403 -415 422 0
-400 423 0
-402 424 0
-404 425 0
-412 423 0
-414 424 0
-416 425 0
-400 -412 424 0
-400 -414 425 0
-400 -416 426 0
-402 -412 425 0
-402 -414 426 0
-402 -416 427 0
-404 -412 426 0
-404 -414 427 0
-404 -416 428 0
-418 429 0
-423 429 0
-418 -423 430 0
-419 431 0
-424 431 0
-419 -424 432 0
-420 433 0
-425 433 0
-420 -425 434 0
-421 435 0
-426 435 0
-421 -426 436 0
-422 437 0
-427 437 0
-422 -427 438 0
-1 439 0
-37 439 0
-1 -37 440 0
-49 439 0
-1 -49 440 0
-37 -49 440 0
-1 -37 -49 441 0
-48 442 0
-47 442 0
-48 -47 443 0
-46 442 0
-48 -46 443 0
-47 -46 443 0
-48 -47 -46 444 0
-439 445 0
-440 446 0
-441 447 0
-442 445 0
-443 446 0
-444 447 0
-439 -442 446 0
-439 -443 447 0
-439 -444 448 0
-440 -442 447 0
-440 -443 448 0
-440 -444 449 0
-441 -442 448 0
-441 -443 449 0
-441 -444 450 0
-45 451 0
-44 451 0
-45 -44 452 0
-43 451 0
-45 -43 452 0
-44 -43 452 0
-45 -44 -43 453 0
-42 454 0
-41 454 0
-42 -41 455 0
-40 454 0
-42 -40 455 0
-41 -40 455 0
-42 -41 -40 456 0
-451 457 0
-452 458 0
-453 459 0
-454 457 0
-455 458 0
-456 459 0
-451 -454 458 0
-451 -455 459 0
-451 -456 460 0
-452 -454 459 0
-452 -455 460 0
-452 -456 461 0
-453 -454 460 0
-453 -455 461 0
-453 -456 462 0
-445 463 0
-447 464 0
-449 465 0
-457 463 0
-459 464 0
-461 465 0
-445 -457 464 0
-445 -459 465 0
-445 -461 466 0
-447 -457 465 0
-447 -459 466 0
-447 -461 467 0
-449 -457 466 0
-449 -459 467 0
-449 -461 468 0
-446 469 0
-448 470 0
-450 471 0
-458 469 0
-460 470 0
-462 471 0
-446 -458 470 0
-446 -460 471 0
-446 -462 472 0
-448 -458 471 0
-448 -460 472 0
-448 -462 473 0
-450 -458 472 0
-450 -460 473 0
-450 -462 474 0
-464 475 0
-469 475 0
-464 -469 476 0
-465 477 0
-470 477 0
-465 -470 478 0
-466 479 0
-471 479 0
-466 -471 480 0
-467 481 0
-472 481 0
-467 -472 482 0
-468 483 0
-473 483 0
-468 -473 484 0
-39 485 0
-38 485 0
-39 -38 486 0
-50 485 0
-39 -50 486 0
-38 -50 486 0
-39 -38 -50 487 0
-36 488 0
-35 488 0
-36 -35 489 0
-34 488 0
-36 -34 489 0
-35 -34 489 0
-36 -35 -34 490 0
-485 491 0
-486 492 0
-487 493 0
-488 491 0
-489 492 0
-490 493 0
-485 -488 492 0
-485 -489 493 0
-485 -490 494 0
-486 -488 493 0
-486 -489 494 0
-486 -490 495 0
-487 -488 494 0
-487 -489 495 0
-487 -490 496 0
-33 497 0
-32 497 0
-33 -32 498 0
-31 497 0
-33 -31 498 0
-32 -31 498 0
-33 -32 -31 499 0
-30 500 0
-29 500 0
-30 -29 501 0
-28 502 0
-27 502 0
-28 -27 503 0
-26 502 0
-28 -26 503 0
-27 -26 503 0
-28 -27 -26 504 0
-500 505 0
-501 506 0
-502 505 0
-503 506 0
-504 507 0
-500 -502 506 0
-500 -503 507 0
-500 -504 508 0
-501 -502 507 0
-501 -503 508 0
-501 -504 509 0
-497 510 0
-498 511 0
-499 512 0
-505 510 0
-506 511 0
-507 512 0
-508 513 0
-509 514 0
-497 -505 511 0
-497 -506 512 0
-497 -507 513 0
-497 -508 514 0
-497 -509 515 0
-498 -505 512 0
-498 -506 513 0
-498 -507 514 0
-498 -508 515 0
-498 -509 516 0
-499 -505 513 0
-499 -506 514 0
-499 -507 515 0
-499 -508 516 0
-499 -509 517 0
-491 518 0
-493 519 0
-495 520 0
-510 518 0
-512 519 0
-514 520 0
-516 521 0
-491 -510 519 0
-491 -512 520 0
-491 -514 521 0
-491 -516 522 0
-493 -510 520 0
-493 -512 521 0
-493 -514 522 0
-493 -516 523 0
-495 -510 521 0
-495 -512 522 0
-495 -514 523 0
-495 -516 524 0
-492 525 0
-494 526 0
-496 527 0
-511 525 0
-513 526 0
-515 527 0
-517 528 0
-492 -511 526 0
-492 -513 527 0
-492 -515 528 0
-492 -517 529 0
-494 -511 527 0
-494 -513 528 0
-494 -515 529 0
-494 -517 530 0
-496 -511 528 0
-496 -513 529 0
-496 -515 530 0
-496 -517 531 0
-519 532 0
-525 532 0
-519 -525 533 0
-520 534 0
-526 534 0
-520 -526 535 0
-521 536 0
-527 536 0
-521 -527 537 0
-522 538 0
-528 538 0
-522 -528 539 0
-523 540 0
-529 540 0
-523 -529 541 0
-524 542 0
-530 542 0
-524 -530 543 0
-463 544 0
-478 545 0
-482 546 0
-518 544 0
-535 545 0
-539 546 0
-543 547 0
-463 -518 545 0
-463 -535 546 0
-463 -539 547 0
-463 -543 548 0
-478 -518 546 0
-478 -535 547 0
-478 -539 548 0
-482 -518 547 0
-482 -535 548 0
-476 549 0
-480 550 0
-484 551 0
-533 549 0
-537 550 0
-541 551 0
-476 -533 550 0
-476 -537 551 0
-476 -541 552 0
-480 -533 551 0
-480 -537 552 0
-484 -533 552 0
-545 553 0
-549 553 0
-545 -549 554 0
-546 555 0
-550 555 0
-546 -550 556 0
-547 557 0
-551 557 0
-547 -551 558 0
-548 559 0
-552 559 0
-548 -552 560 0
-475 561 0
-479 562 0
-483 563 0
-532 561 0
-536 562 0
-540 563 0
-531 564 0
-475 -532 562 0
-475 -536 563 0
-475 -540 564 0
-475 -531 565 0
-479 -532 563 0
-479 -536 564 0
-479 -540 565 0
-483 -532 564 0
-483 -536 565 0
-477 566 0
-481 567 0
-474 568 0
-534 566 0
-538 567 0
-542 568 0
-477 -534 567 0
-477 -538 568 0
-477 -542 569 0
-481 -534 568 0
-481 -538 569 0
-474 -534 569 0
-562 570 0
-566 570 0
-562 -566 571 0
-563 572 0
-567 572 0
-563 -567 573 0
-564 574 0
-568 574 0
-564 -568 575 0
-565 576 0
-569 576 0
-553 577 0
-561 577 0
-553 -561 578 0
-554 579 0
-570 579 0
-554 -570 580 0
-555 581 0
-571 581 0
-555 -571 582 0
-556 583 0
-572 583 0
-556 -572 584 0
-557 585 0
-573 585 0
-557 -573 586 0
-558 587 0
-574 587 0
-558 -574 588 0
-559 589 0
-575 589 0
-559 -575 590 0
-560 591 0
-576 591 0
-417 592 0
-432 593 0
-436 594 0
-544 592 0
-580 593 0
-584 594 0
-588 595 0
-417 -544 593 0
-417 -580 594 0
-417 -584 595 0
-417 -588 596 0
-432 -544 594 0
-432 -580 595 0
-432 -584 596 0
-436 -544 595 0
-436 -580 596 0
-430 597 0
-434 598 0
-438 599 0
-578 597 0
-582 598 0
-586 599 0
-590 600 0
-430 -578 598 0
-430 -582 599 0
-430 -586 600 0
-434 -578 599 0
-434 -582 600 0
-438 -578 600 0
-593 601 0
-597 601 0
-593 -597 602 0
-594 603 0
-598 603 0
-594 -598 604 0
-595 605 0
-599 605 0
-595 -599 606 0
-596 607 0
-600 607 0
-596 -600 608 0
-429 609 0
-433 610 0
-437 611 0
-577 609 0
-581 610 0
-585 611 0
-589 612 0
-429 -577 610 0
-429 -581 611 0
-429 -585 612 0
-429 -589 613 0
-433 -577 611 0
-433 -581 612 0
-433 -585 613 0
-437 -577 612 0
-437 -581 613 0
-431 614 0
-435 615 0
-428 616 0
-579 614 0
-583 615 0
-587 616 0
-591 617 0
-431 -579 615 0
-431 -583 616 0
-431 -587 617 0
-435 -579 616 0
-435 -583 617 0
-428 -579 617 0
-610 618 0
-614 618 0
-610 -614 619 0
-611 620 0
-615 620 0
-611 -615 621 0
-612 622 0
-616 622 0
-612 -616 623 0
-613 624 0
-617 624 0
-601 625 0
-609 625 0
-601 -609 626 0
-602 627 0
-618 627 0
-602 -618 628 0
-603 629 0
-619 629 0
-603 -619 630 0
-604 631 0
-620 631 0
-604 -620 632 0
-605 633 0
-621 633 0
-605 -621 634 0
-606 635 0
-622 635 0
-606 -622 636 0
-607 637 0
-623 637 0
-607 -623 638 0
-608 639 0
-624 639 0
-371 640 0
-386 641 0
-390 642 0
-592 640 0
-628 641 0
-632 642 0
-636 643 0
-371 -592 641 0
-371 -628 642 0
-371 -632 643 0
-371 -636 644 0
-386 -592 642 0
-386 -628 643 0
-386 -632 644 0
-390 -592 643 0
-390 -628 644 0
-384 645 0
-388 646 0
-392 647 0
-626 645 0
-630 646 0
-634 647 0
-638 648 0
-384 -626 646 0
-384 -630 647 0
-384 -634 648 0
-388 -626 647 0
-388 -630 648 0
-392 -626 648 0
-641 649 0
-645 649 0
-641 -645 650 0
-642 651 0
-646 651 0
-642 -646 652 0
-643 653 0
-647 653 0
-643 -647 654 0
-644 655 0
-648 655 0
-644 -648 656 0
-383 657 0
-387 658 0
-391 659 0
-625 657 0
-629 658 0
-633 659 0
-637 660 0
-383 -625 658 0
-383 -629 659 0
-383 -633 660 0
-383 -637 661 0
-387 -625 659 0
-387 -629 660 0
-387 -633 661 0
-391 -625 660 0
-391 -629 661 0
-385 662 0
-389 663 0
-382 664 0
-627 662 0
-631 663 0
-635 664 0
-639 665 0
-385 -627 663 0
-385 -631 664 0
-385 -635 665 0
-389 -627 664 0
-389 -631 665 0
-382 -627 665 0
-658 666 0
-662 666 0
-658 -662 667 0
-659 668 0
-663 668 0
-659 -663 669 0
-660 670 0
-664 670 0
-660 -664 671 0
-661 672 0
-665 672 0
-649 673 0
-657 673 0
-649 -657 674 0
-650 675 0
-666 675 0
-650 -666 676 0
-651 677 0
-667 677 0
-651 -667 678 0
-652 679 0
-668 679 0
-652 -668 680 0
-653 681 0
-669 681 0
-653 -669 682 0
-654 683 0
-670 683 0
-654 -670 684 0
-655 685 0
-671 685 0
-655 -671 686 0
-656 687 0
-672 687 0
-687 0
